8
0, 386, 481, 178, 104, 150, 375, 586
386, 0, 679, 227, 491, 236, 751, 736
481, 679, 0, 491, 471, 531, 426, 120
178, 227, 491, 0, 279, 59, 525, 572
104, 491, 471, 279, 0, 255, 279, 586
150, 236, 531, 59, 255, 0, 519, 618
375, 751, 426, 525, 279, 519, 0, 542
586, 736, 120, 572, 586, 618, 542, 0
